1 -1 -2 0
1 -3 -4 0
1 5 6 0
1 7 8 0
1 9 -10 0
1 9 11 0
1 -11 10 0
1 -11 12 0
1 11 -5 0
1 -4 13 0
1 14 -15 0
1 15 16 0
1 -15 11 0
1 -17 9 0
1 17 18 0
1 -19 -20 0
1 16 -21 0
1 -16 -5 0
1 -6 15 0
1 20 -22 0
1 20 -23 0
1 20 19 0
1 24 -19 0
1 -24 25 0
1 24 26 0
1 -26 -18 0
1 -25 -20 0
1 -27 -28 0
1 -28 29 0
1 29 30 0
1 -31 27 0
1 31 -30 0
1 -32 -33 0
1 32 -34 0
1 32 4 0
1 33 -29 0
1 35 13 0
1 35 29 0
1 13 35 0
1 -34 -33 0
1 34 35 0
1 34 -32 0
1 36 -37 0
1 -36 32 0
1 -38 35 0
1 -12 39 0
1 40 41 0
1 37 -42 0
1 41 -43 0
1 44 45 0
1 -44 -46 0
1 44 35 0
1 -44 47 0
1 -43 48 0
1 43 -6 0
1 -43 16 0
1 -43 -49 0
1 49 16 0
1 49 -41 0
1 49 50 0
1 51 -50 0
1 52 -53 0
1 -52 22 0
1 -48 54 0
1 -48 55 0
1 56 53 0
1 57 -48 0
1 57 -58 0
1 57 59 0
1 -57 60 0
1 -61 -53 0
1 -61 -57 0
1 -62 63 0
1 -62 -19 0
1 -62 64 0
1 -62 -52 0
1 65 -62 0
1 -53 61 0
1 -64 63 0
1 -64 -54 0
1 66 67 0
1 -68 -49 0
1 46 -69 0
1 -70 71 0
1 -72 47 0
1 71 -70 0
1 -73 68 0
1 74 45 0
1 -74 -75 0
1 74 47 0
1 47 -76 0
1 59 -77 0
1 59 78 0
1 -79 78 0
1 -77 46 0
1 -75 80 0
1 -75 59 0
1 75 47 0
1 -81 74 0
1 76 -81 0
1 82 83 0
1 -54 -84 0
1 -67 -84 0
1 -67 -66 0
1 85 45 0
1 -86 85 0
1 86 54 0
